minizinc/sudoku_problems2/sudoku_p72.dzn
%
% sudoku_p72.dzn
% See http://www.hakank.org/minizinc/sudoku_gcc.mzn
% 
% This problem is problem 72 from
% Gecode's sudoku.cpp
% http://www.gecode.org/gecode-doc-latest/sudoku_8cpp-source.html
% 
x = array2d(1..n, 1..n, [   
% http://janko.at/Raetsel/Sudoku/519.a.htm
% 72// problems
 12, 13,  _, 14,  9,  _,  8,  _,  _,  _,  _,  _,  _,  6,  _,  _,
  _,  6,  2,  _,  _,  3,  _,  _,  _, 14,  _,  _,  8,  5,  _,  7,
  _, 16,  _,  _,  _,  6,  _,  _,  _, 10, 15,  5,  _,  _,  _, 13,
  _,  _,  _,  _, 13,  5,  4,  _,  3,  9,  _,  8,  _,  _,  _, 14,
  6, 15, 11,  _,  _, 14, 13,  4,  _,  _,  _, 16,  _,  1,  _,  _,
  4,  _, 10,  _,  5,  _,  _,  2, 13,  _,  _,  _,  _,  _,  _, 16,
  _, 12,  _,  1,  _,  _,  _, 16, 15,  5,  3, 10,  2,  _,  _,  6,
  _,  2,  _,  3,  _, 10,  _,  1,  _,  _,  _,  _, 15,  _,  _,  _,
  _,  _,  _,  2,  _,  _,  _,  _,  4,  _, 11,  _,  9,  _,  6,  _,
  3,  _,  _,  6, 16,  8, 14,  9,  5,  _,  _,  _,  4,  _,  2,  _,
 16,  _,  _,  _,  _,  _,  _, 13,  9,  _,  _,  3,  _, 15,  _,  8,
  _,  _,  4,  _,  2,  _,  _,  _,  6,  8, 10,  _,  _, 16, 12,  3,
 10,  _,  _,  _,  1,  _,  3, 14,  _, 13,  9, 12,  _,  _,  _,  _,
 14,  _,  _,  _,  4,  9, 12,  _,  _,  _,  5,  _,  _,  _,  1,  _,
  2,  _,  9, 13,  _,  _, 10,  _,  _,  _,  8,  _,  _,  3, 15,  _,
  _,  _,  8,  _,  _,  _,  _,  _,  _,  2,  _,  7, 10,  _, 14,  5
]);

n = 16;


